132 188 193 122 91 153 113 48 44 88 164 194 7 158 189 17 54 12 199 21 100 174 75 39 105 51 87 128 15 5 63 16 172 139 157 106 169 107 133 140 118 195 116 86 20 192 22 125 155 49 166 161 97 185 135 177 9 78 183 151 184 96 110 126 197 1 143 149 42 165 176 85 53 187 120 146 163 159 4 99 55 59 79 171 80 66 41 19 70 33 190 57 35 30 26 84 76 11 72 148 167 37 31 68 83 2 93 56 52 3 134 160 175 95 18 191 81 198 46 173 27 147 89 102 111 180 129 104 69 65 45 137 168 109 10 138 131 186 77 73 103 43 145 74 36 13 150 124 121 181 23 29 92 136 61 24 38 196 0 154 114 101 141 34 117 144 32 28 40 50 170 98 14 64 25 130 60 182 178 90 6 112 142 94 47 8 115 82 156 179 62 119 108 71 58 162 123 127 152 67